100
32
15
32
19
5
1
12
12
25
24
7
2
21
10
3
9
19
3
1
1
1
1
21
1
3
17
1
1
1
21
16
1
1
2
3
2
6
2
6
2
1
3
1
22
2
2
1
1
1
1
3
3
24
4
4
1
2
2
3
19
1
3
1
2
2
1
19
3
1
1
1
3
3
3
1
1
17
1
1
21
1
2
1
1
2
1
3
2
3
7
2
2
21
3
2
1
23
1
2
6
1